837.81 0
0 52 7 88 62 11 64 19 48 8 17 86 16 84 83 0
0 13 87 2 72 4 54 12 3 79 33 50 0
0 27 69 70 10 63 90 32 20 66 65 71 35 34 76 0
0 95 97 92 37 100 14 38 44 91 93 59 99 96 0
0 18 82 47 49 36 46 45 61 85 98 94 0
0 6 5 60 89 53 58 40 26 0
0 28 21 73 74 23 67 25 55 80 68 77 1 31 0
0 57 42 43 15 41 22 75 56 39 24 29 78 81 9 51 30 0